24 8 52
43 5 64
7 17 63
23 16 57
48 25 55
8 31 62
26 27 68
31 37 69
28 43 67
3 52 64
36 63 69
35 62 63
20 57 58
29 58 48
21 62 42
34 61 33
30 58 27
9 52 33
50 56 37
16 52 41
2 49 49
22 42 57
1 37 52
32 38 46
11 42 41
38 45 35
5 40 30
49 48 28
10 51 21
39 59 15
33 46 10
45 39 10
15 36 16
44 30 15
42 21 10
40 5 6
19 13 13
41 10 17
13 5 25
25 7 38
14 12 42
18 17 33
4 20 26
17 27 23
37 32 22
47 25 32
12 31 32
46 32 39
51 30 40
27 30 48
6 21 47
24 8 52
